objective value:                                    9
Pattern_11                                          1 	(obj:1)
Pattern_12                                          1 	(obj:1)
Pattern_14                                          1 	(obj:1)
NewPattern_19                                   0.625 	(obj:1)
NewPattern_20                                       1 	(obj:1)
NewPattern_21                                    0.25 	(obj:1)
NewPattern_23                                   0.375 	(obj:1)
NewPattern_24                                   0.125 	(obj:1)
NewPattern_27                                       1 	(obj:1)
NewPattern_28                                   0.625 	(obj:1)
NewPattern_29                                    0.25 	(obj:1)
NewPattern_30                                   0.375 	(obj:1)
NewPattern_31                                   0.375 	(obj:1)
NewPattern_32                                       1 	(obj:1)
